100
30
1
10
32
28
32
5
2
17
21
31
22
2
31
30
17
9
21
21
31
16
11
8
32
22
17
6
10
22
23
17
9
6
14
21
17
26
16
8
7
16
21
16
27
17
13
27
13
10
18
9
6
7
16
1
13
8
3
23
21
1
8
11
32
32
20
18
31
28
32
20
18
9
31
6
32
24
21
31
2
9
18
26
25
32
4
17
2
20
29
1
10
18
31
5
20
9
6
8
17
2